p cnf 67 168
5 7 0
-6 7 0
-5 6 -7 0
8 10 0
-9 10 0
-8 9 -10 0
-1 10 -11 0
1 -10 -11 0
-1 -10 11 0
1 10 11 0
-11 0
7 -14 0
12 -14 0
-13 -14 0
-7 -12 13 14 0
12 15 0
-7 15 0
7 -12 -15 0
15 -17 0
-16 -17 0
-15 16 17 0
1 -17 18 0
1 17 -18 0
-1 -14 18 0
-1 14 -18 0
20 21 0
-9 21 0
9 -20 -21 0
-19 -22 0
21 -22 0
19 -21 22 0
-2 22 -23 0
2 -22 -23 0
-2 -22 23 0
2 22 23 0
-23 0
-16 -24 0
13 -24 0
-13 16 24 0
13 -25 0
16 -25 0
-18 -25 0
-13 -16 18 25 0
2 -16 26 0
2 16 -26 0
-2 -24 26 0
-2 24 -26 0
2 -25 27 0
2 25 -27 0
-2 -6 27 0
-2 6 -27 0
-13 28 0
-18 28 0
26 28 0
13 18 -26 -28 0
18 -29 0
-28 -29 0
-18 28 29 0
13 30 0
-26 30 0
-29 30 0
-13 26 29 -30 0
27 -31 0
-28 -31 0
-27 28 31 0
-32 -34 0
-33 -34 0
32 33 34 0
-3 34 -35 0
3 -34 -35 0
-3 -34 35 0
3 34 35 0
-35 0
-36 37 0
-31 37 0
31 36 -37 0
27 -39 0
-36 -39 0
38 -39 0
-27 36 -38 39 0
3 -36 40 0
3 36 -40 0
-3 -37 40 0
-3 37 -40 0
3 -39 41 0
3 39 -41 0
-3 -38 41 0
-3 38 -41 0
3 -42 0
33 -42 0
-3 -33 42 0
43 44 0
-42 44 0
42 -43 -44 0
-4 44 -45 0
4 -44 -45 0
-4 -44 45 0
4 44 45 0
-45 0
-40 -46 0
41 -46 0
40 -41 46 0
-30 -48 0
31 -48 0
47 -48 0
30 -31 -47 48 0
4 -48 50 0
4 48 -50 0
-4 -49 50 0
-4 49 -50 0
4 -51 52 0
4 51 -52 0
-4 -46 52 0
-4 46 -52 0
47 -54 0
-27 -54 0
27 -47 54 0
-53 55 0
-54 55 0
53 54 -55 0
41 56 0
-47 56 0
-41 47 -56 0
55 -57 0
56 -57 0
-55 -56 57 0
53 -58 0
40 -58 0
-40 -53 58 0
41 59 0
-57 59 0
-58 59 0
-41 57 58 -59 0
60 -61 0
-47 -61 0
47 -60 61 0
50 62 0
-61 62 0
-50 61 -62 0
55 -63 0
-59 -63 0
-55 59 63 0
-62 64 0
-63 64 0
62 63 -64 0
64 65 0
-31 65 0
31 -64 -65 0
57 -66 0
65 -66 0
-57 -65 66 0
28 0
30 0
26 0
27 0
31 0
40 0
41 0
67 0
52 0
50 0
47 0
55 0
57 0
59 0
62 0
64 0
66 0
c main::1::x1!0@1#1 5
c main::1::x2!0@1#1 12
c main::1::x3!0@1#1 16
c main::1::x4!0@1#1 6
c main::1::x5!0@1#1 13
c main::1::x6!0@1#1 36
c main::1::x7!0@1#1 38
c main::1::x8!0@1#1 67
c main::1::x9!0@1#1 51
c main::1::x10!0@1#1 49
c main::1::x11!0@1#1 47
c main::1::x14!0@1#1 53
c main::1::x15!0@1#1 60
c main::1::r1!0@1#1 8
c main::1::r2!0@1#1 19
c main::1::r3!0@1#1 20
c main::1::r4!0@1#1 9
c main::1::r5!0@1#1 32
c main::1::r6!0@1#1 33
c main::1::r7!0@1#1 43
c main::1::x1!0@1#2 7
c goto_symex::\guard#1 1
c main::1::x2!0@1#2 14
c main::1::x2!0@1#3 17
c main::1::x2!0@1#4 18
c goto_symex::\guard#2 2
c main::1::x3!0@1#2 24
c main::1::x4!0@1#2 25
c main::1::x3!0@1#3 26
c main::1::x4!0@1#3 27
c main::1::x1!0@1#3 28
c main::1::x2!0@1#5 30
c main::1::x5!0@1#2 31
c goto_symex::\guard#3 3
c main::1::x6!0@1#2 37
c main::1::x7!0@1#2 39
c main::1::x6!0@1#3 40
c main::1::x7!0@1#3 41
c main::1::r6!0@1#3 42
c goto_symex::\guard#4 4
c main::1::x9!0@1#2 46
c main::1::x10!0@1#2 48
c main::1::x10!0@1#3 50
c main::1::x9!0@1#3 52
c main::1::x12!0@1#2 55
c main::1::x13!0@1#2 57
c main::1::x14!0@1#2 59
c main::1::x15!0@1#2 62
c main::1::x16!0@1#2 64
c main::1::x17!0@1#2 66
